p cnf 15 20
-15 -12 11 0
15 -12 -7 0
-15 -3 -2 0
14 -13 11 0
14 -11 -4 0
-14 3 1 0
13 -10 7 0
-12 10 2 0
-12 9 6 0
12 6 4 0
12 6 -4 0
-12 4 3 0
11 -10 -3 0
9 6 4 0
8 -7 4 0
-7 6 -2 0
7 -5 -3 0
7 -5 3 0
7 3 1 0
-5 4 -3 0
